/* objective function */
min: 12 q1 + 10 r1 + 2 s1 + 14 q2 + 12 r2 + 2 s2 + 16 q3 + 14 r3 + 2 s3 + 18 q4 + 16 r4 + 2 s4;

/* constrains */
q1 + r1 -s1 = 100;
s1 + q2 + r2 - s2 = 200;
s2 + q3 + r3 - s3 = 150;
s3 + q4 + r4 - s4 = 400;
q1 <= 150;
q2 <=150;
q3 <= 150;
q4<=150;
q1 >= 150b1;
q2 >= 150b1;
q3 >= 150b1;
q4 >= 150b1;
r1 <= 1000 b1;
r2 <= 1000 b1;
r3 <= 1000 b1;
r4 <= 1000 b1;
b1 <= 1;
int b1;
